p cnf 100 120
29 90 -38 0
98 40 77 0
-49 84 2 0
6 27 -71 0
-1 17 -67 0
-5 -65 90 0
40 82 16 0
-55 91 27 0
-85 -50 -9 0
89 -64 56 0
-71 81 64 0
4 37 -66 0
18 -32 34 0
64 51 88 0
2 -50 -76 0
-39 -23 -51 0
63 56 -62 0
-58 -54 -19 0
35 72 -23 0
48 -98 -60 0
99 -97 -66 0
-57 32 -6 0
-44 77 81 0
-15 78 -21 0
91 -15 -88 0
-34 37 -58 0
75 -98 -72 0
84 1 -54 0
-45 21 -88 0
100 -11 5 0
22 66 41 0
-73 -96 -55 0
99 -34 -12 0
-72 -43 84 0
-69 12 -99 0
-53 70 -7 0
19 -59 58 0
58 -66 -6 0
25 -27 74 0
-49 -70 88 0
12 -2 -44 0
54 -58 98 0
23 -74 -71 0
-60 -7 -65 0
75 8 10 0
27 55 16 0
-13 86 -58 0
26 31 -90 0
86 -89 73 0
-84 -37 65 0
31 14 -58 0
57 -66 97 0
53 89 -62 0
71 -74 5 0
80 -60 -46 0
-83 -22 -89 0
45 21 12 0
-97 -67 -40 0
31 -14 74 0
16 52 -22 0
-48 -32 -97 0
-34 50 -91 0
-75 -74 -30 0
-70 31 35 0
38 -12 77 0
63 84 -10 0
-97 -60 -23 0
74 34 57 0
83 -66 -35 0
-23 -30 48 0
-86 -47 -56 0
61 13 -71 0
-73 -47 -68 0
-94 -90 83 0
53 62 -20 0
-29 -87 47 0
-90 -8 -31 0
-93 11 -40 0
-37 -98 -5 0
100 3 -80 0
-21 -90 -87 0
-18 -43 -14 0
-43 52 25 0
-38 83 -89 0
70 12 87 0
-95 -37 -47 0
-52 -25 48 0
-62 8 -27 0
43 17 25 0
62 3 48 0
-59 -39 -63 0
-24 7 98 0
14 -52 73 0
98 -38 18 0
-31 -12 -53 0
28 -76 100 0
-25 -6 -77 0
-90 -16 6 0
-61 76 -19 0
-6 21 87 0
x 1 -2 -4 -6 9 -11 14 15 -17 18 -21 22 24 -26 -30 -32 34 35 36 37 -38 40 43 45 -47 -49 52 -55 -58 -59 -60 -64 65 66 67 69 -71 73 -74 -75 78 -79 80 81 -82 83 -84 85 -86 -87 92 -96 -97 -99 -100 0
x -2 3 4 -5 -6 10 12 13 14 -15 18 19 20 21 22 -23 -27 -30 31 32 -33 -35 -36 -38 43 44 -45 -47 49 -50 52 -54 55 -57 -59 64 -66 69 71 -74 -75 79 -82 -83 -85 -88 89 -90 -92 93 95 -96 98 -100 0
x -3 5 -6 -9 -10 -15 -16 -17 -18 20 23 -28 -32 33 34 -36 -38 40 -41 -43 44 -45 46 47 58 62 -64 -65 -66 67 68 -70 -71 74 75 76 -77 -80 -81 82 -83 86 -88 -93 -95 -98 99 0
x 1 -8 -9 -11 15 19 -23 24 -25 26 -27 29 -30 35 36 -37 38 -39 40 42 43 -44 -47 48 49 50 -53 55 -56 60 -61 -63 -65 67 69 -70 -72 -73 76 -79 -84 -85 -94 95 -97 98 -99 -100 0
x 1 -3 -4 -6 -8 -9 16 17 18 21 -22 -23 -25 -27 30 31 -33 35 -36 -39 40 44 -46 49 50 53 57 59 61 -62 63 -64 65 -66 67 -70 -72 -73 74 -75 77 83 87 -89 90 -92 -93 94 -95 -96 -99 -100 0
x 2 3 -6 -7 9 10 15 -17 18 19 20 -21 23 -24 -26 27 -28 31 -35 -43 -45 47 -48 -49 52 -55 -59 -60 61 -63 -65 67 -68 69 -71 -73 74 75 -77 -80 83 85 -86 88 89 92 93 95 -96 0
x 1 -2 3 7 -8 9 -11 -17 20 22 23 -25 31 -32 33 -34 36 -37 38 -39 40 47 -50 53 56 -57 59 61 62 -63 65 66 -69 70 -71 -72 -73 76 -78 -79 -81 82 -83 -84 -85 86 -88 97 100 0
x -5 -8 -9 -10 -11 13 -14 20 -21 -23 26 -27 29 -30 32 -33 -35 37 38 39 -40 41 -45 50 -52 55 -56 -57 58 -59 60 -63 -65 -66 -67 -68 -71 -74 76 81 85 -86 -87 88 91 92 -93 94 -95 97 99 100 0
x -1 -2 5 6 12 13 18 -19 -21 22 -27 28 -30 -32 -35 37 -38 41 43 -44 45 46 -48 -51 53 -54 56 61 -63 64 -68 71 -73 -74 76 78 84 85 -86 -90 96 -99 0
x -1 -3 5 6 13 18 -20 -21 -22 27 -30 32 34 38 44 45 46 -49 -54 55 56 -58 -60 -62 -64 65 67 68 -69 -71 75 76 -78 81 -82 83 -93 -94 95 96 -97 98 -100 0
x 1 -6 10 12 13 15 -17 -18 -19 -21 -22 -24 27 -31 32 -33 -36 -37 -42 44 -45 -47 -49 -50 51 54 -55 56 -57 60 -61 -65 67 -68 69 70 71 72 -73 -75 -78 80 81 -83 -84 90 93 -94 -95 -98 -99 0
x 1 -2 5 6 -7 -8 -9 11 12 -15 -18 -24 29 31 32 33 35 36 -40 44 -45 -53 55 56 -59 60 61 -64 -65 66 67 -69 -70 71 72 -73 -74 75 76 -77 78 -79 82 -84 -85 -86 -89 -90 91 -93 94 -96 97 99 0
x -3 -5 -8 -11 -13 -14 -15 -16 -17 -18 -19 24 -26 -27 29 30 -34 -40 -44 -45 -49 -50 -52 55 57 -62 -65 -68 -69 71 -72 -73 75 79 80 -82 83 -85 -87 88 93 96 98 -99 -100 0
x -1 -4 5 -7 -8 -10 11 -13 15 17 23 24 -26 -29 30 31 32 33 34 36 37 41 -43 45 47 -52 -54 56 57 -59 60 -63 -68 72 73 74 75 76 78 -80 81 82 -83 -85 86 87 89 90 94 95 96 97 100 0
x -1 -6 13 18 -24 -25 -27 29 -31 32 33 -34 36 42 -43 44 -45 48 52 54 55 -59 60 66 -70 71 72 -77 -78 -80 -83 88 -89 -90 92 93 94 -95 96 97 -98 0
x -5 -14 -15 -16 -20 21 26 27 -28 31 -32 -38 40 -41 45 -47 52 -53 -55 56 -57 -58 59 -62 65 66 -67 68 69 70 -71 -72 -73 -74 77 78 -79 -81 82 85 86 87 88 90 94 95 -96 97 -98 0
x -1 2 -4 9 -10 12 -13 14 15 -16 -22 -26 -28 30 -32 33 35 -37 -40 -42 -43 45 -46 -49 51 -56 57 59 -60 61 62 -65 -68 -70 -71 -72 75 78 80 -81 82 -83 85 86 87 -92 95 96 -97 0
x -3 -6 11 12 -13 -14 -15 19 -20 -25 -26 27 -28 30 34 -40 -42 -43 -44 47 51 -52 -53 -55 -58 -65 67 -69 -71 73 74 76 81 82 -83 85 87 88 -90 94 96 -98 99 0
x 2 4 -5 -8 9 -10 11 -16 -20 23 25 27 29 32 -34 -35 37 -40 45 -46 48 54 56 57 -58 -59 60 -61 -64 -65 68 -70 -72 75 -76 -77 -78 80 -82 -83 84 -87 -90 91 92 -94 -95 -96 -97 -98 -100 0
x 1 -3 -4 5 6 8 -9 -10 -17 18 20 -21 25 -27 -28 29 -32 39 40 -44 45 48 49 -50 52 -54 55 61 64 -66 67 -69 -70 -71 73 74 75 -81 -84 85 88 90 92 -93 -94 95 -96 97 -99 100 0
